Route #1: 1 6 11 16 40 34 16 18 5 1 
Route #2: 1 38 16 20 16 13 1 
Route #3: 1 12 3 21 36 37 4 23 28 1 
Route #4: 1 33 3 35 31 10 3 30 22 17 39 1 
Route #5: 1 2 23 9 27 32 29 23 1 
Route #6: 1 19 14 26 15 24 8 25 15 7 1 
Cost 646.0
